objective value:                   -0.999732233980852
h-1,2                                            0.01 	(obj:0)
h-1,4                                            0.01 	(obj:0)
h-1,6                                            0.01 	(obj:0)
h-1,7                                            0.01 	(obj:0)
h-1,9                                            0.01 	(obj:0)
h-1,10                                           0.01 	(obj:0)
h-1,19                                           0.01 	(obj:0)
h-1,20                                           0.01 	(obj:0)
h-1,28                                           0.01 	(obj:0)
h-1,29                                           0.01 	(obj:0)
h-1,32                                           0.01 	(obj:0)
h-1,34                                           0.01 	(obj:0)
h-1,35                                           0.01 	(obj:0)
h-1,36                                           0.01 	(obj:0)
h-1,40                                           0.01 	(obj:0)
h-1,41                                           0.01 	(obj:0)
h-1,42                                           0.01 	(obj:0)
h-1,43                                           0.01 	(obj:0)
h-1,44                                           0.01 	(obj:0)
h-1,45                                           0.01 	(obj:0)
h-1,46                                           0.01 	(obj:0)
h-1,47                                           0.01 	(obj:0)
h-1,48                                           0.01 	(obj:0)
h-1,49                                           0.01 	(obj:0)
h-1,50                                           0.01 	(obj:0)
h-1,51                                           0.01 	(obj:0)
h-1,52                                           0.01 	(obj:0)
h-1,53                                           0.01 	(obj:0)
h-1,54                                           0.01 	(obj:0)
h-1,55                                           0.01 	(obj:0)
h-1,56                                           0.01 	(obj:0)
h-1,58                                           0.01 	(obj:0)
h-1,59                                           0.01 	(obj:0)
h-1,60                                           0.01 	(obj:0)
h-1,61                                           0.01 	(obj:0)
h-1,62                                           0.01 	(obj:0)
h-1,69                                           0.01 	(obj:0)
h-1,70                                           0.01 	(obj:0)
h-1,71                                           0.01 	(obj:0)
h-1,73                                           0.01 	(obj:0)
h-1,80                                           0.01 	(obj:0)
h-1,82                                           0.01 	(obj:0)
h-1,83                                           0.01 	(obj:0)
h-1,84                                           0.01 	(obj:0)
h-1,85                                           0.01 	(obj:0)
h-1,87                                           0.01 	(obj:0)
h-1,88                                           0.01 	(obj:0)
h-1,89                                           0.01 	(obj:0)
h-1,90                                           0.01 	(obj:0)
h-1,91                                           0.01 	(obj:0)
h-1,92                                           0.01 	(obj:0)
h-1,93                                           0.01 	(obj:0)
h-1,94                                           0.01 	(obj:0)
h-1,95                                           0.01 	(obj:0)
h-1,96                                           0.01 	(obj:0)
h-1,97                                           0.01 	(obj:0)
h-1,98                                           0.01 	(obj:0)
h-1,100                                          0.01 	(obj:0)
h-1,101                                          0.01 	(obj:0)
h-1,109                                          0.01 	(obj:0)
h-1,110                                          0.01 	(obj:0)
h-1,113                                          0.01 	(obj:0)
h-1,118                                          0.01 	(obj:0)
h-1,119                                          0.01 	(obj:0)
h-1,121                                          0.01 	(obj:0)
h-1,125                                          0.01 	(obj:0)
h-1,128                             0.159019613862038 	(obj:0)
h-1,129                                             1 	(obj:0)
h-1,130                             0.417450984716415 	(obj:0)
h-1,132                                          0.01 	(obj:0)
h-1,137                                          0.01 	(obj:0)
h-1,140                                          0.01 	(obj:0)
h-1,141                                          0.01 	(obj:0)
h-1,145                                          0.01 	(obj:0)
h-1,146                                          0.01 	(obj:0)
h-1,147                                          0.01 	(obj:0)
h-1,148                                          0.01 	(obj:0)
h-1,149                                          0.01 	(obj:0)
h-1,150                                          0.01 	(obj:0)
h-1,151                                          0.01 	(obj:0)
h-1,152                                          0.01 	(obj:0)
h-1,153                                          0.01 	(obj:0)
h-1,154                                          0.01 	(obj:0)
h-1,155                                          0.01 	(obj:0)
h-1,156                             0.351176480054855 	(obj:0)
h-1,157                             0.998235294818878 	(obj:0)
h-1,158                             0.331568638086319 	(obj:0)
h-1,165                                          0.01 	(obj:0)
h-1,168                                          0.01 	(obj:0)
h-1,169                                          0.01 	(obj:0)
h-1,171                                          0.01 	(obj:0)
h-1,172                                          0.01 	(obj:0)
h-1,173                                          0.01 	(obj:0)
h-1,174                                          0.01 	(obj:0)
h-1,175                                          0.01 	(obj:0)
h-1,176                                          0.01 	(obj:0)
h-1,177                                          0.01 	(obj:0)
h-1,178                                          0.01 	(obj:0)
h-1,184                             0.519411792755127 	(obj:0)
h-1,185                             0.935098042488098 	(obj:0)
h-1,186                                          0.01 	(obj:0)
h-1,192                           0.00417671179759331 	(obj:0)
h-1,193                                          0.01 	(obj:0)
h-1,194                                          0.01 	(obj:0)
h-1,195                                          0.01 	(obj:0)
h-1,197                                          0.01 	(obj:0)
h-1,199                                          0.01 	(obj:0)
h-1,200                                          0.01 	(obj:0)
h-1,201                                          0.01 	(obj:0)
h-1,202                                          0.01 	(obj:0)
h-1,203                                          0.01 	(obj:0)
h-1,204                                          0.01 	(obj:0)
h-1,205                                          0.01 	(obj:0)
h-1,207                                          0.01 	(obj:0)
h-1,208                                          0.01 	(obj:0)
h-1,210                                          0.01 	(obj:0)
h-1,211                             0.186470592617989 	(obj:0)
h-1,212                              0.96686274766922 	(obj:0)
h-1,213                             0.578235318660736 	(obj:0)
h-1,214                                          0.01 	(obj:0)
h-1,217                                          0.01 	(obj:0)
h-1,218                                          0.01 	(obj:0)
h-1,220                                          0.01 	(obj:0)
h-1,221                                          0.01 	(obj:0)
h-1,222                                          0.01 	(obj:0)
h-1,223                                          0.01 	(obj:0)
h-1,228                                          0.01 	(obj:0)
h-1,229                                          0.01 	(obj:0)
h-1,230                                          0.01 	(obj:0)
h-1,231                                          0.01 	(obj:0)
h-1,232                                          0.01 	(obj:0)
h-1,233                                          0.01 	(obj:0)
h-1,234                                          0.01 	(obj:0)
h-1,235                                          0.01 	(obj:0)
h-1,238                                          0.01 	(obj:0)
h-1,239                             0.319411774873734 	(obj:0)
h-1,240                             0.986078431606293 	(obj:0)
h-1,241                              0.23705882370472 	(obj:0)
h-1,242                                          0.01 	(obj:0)
h-1,243                                          0.01 	(obj:0)
h-1,245                                          0.01 	(obj:0)
h-1,246                                          0.01 	(obj:0)
h-1,249                                          0.01 	(obj:0)
h-1,254                                          0.01 	(obj:0)
h-1,256                                          0.01 	(obj:0)
h-1,257                                          0.01 	(obj:0)
h-1,260                                          0.01 	(obj:0)
h-1,267                             0.782156875133514 	(obj:0)
h-1,268                             0.884509811401367 	(obj:0)
h-1,269                            0.0531372560560703 	(obj:0)
h-1,270                                          0.01 	(obj:0)
h-1,271                                          0.01 	(obj:0)
h-1,274                                          0.01 	(obj:0)
h-1,277                                          0.01 	(obj:0)
h-1,279                                          0.01 	(obj:0)
h-1,284                                          0.01 	(obj:0)
h-1,294                             0.115490203499794 	(obj:0)
h-1,295                             0.986078431606293 	(obj:0)
h-1,296                             0.857058832645416 	(obj:0)
h-1,297                                          0.01 	(obj:0)
h-1,298                                          0.01 	(obj:0)
h-1,299                                          0.01 	(obj:0)
h-1,305                                          0.01 	(obj:0)
h-1,306                                          0.01 	(obj:0)
h-1,322                             0.362549027204514 	(obj:0)
h-1,323                             0.986078431606293 	(obj:0)
h-1,324                             0.754705896377563 	(obj:0)
h-1,326                                          0.01 	(obj:0)
h-1,333                                          0.01 	(obj:0)
h-1,334                                          0.01 	(obj:0)
h-1,350                             0.539019634723663 	(obj:0)
h-1,351                             0.986078431606293 	(obj:0)
h-1,352                             0.311960796117783 	(obj:0)
h-1,354                                          0.01 	(obj:0)
h-1,361                                          0.01 	(obj:0)
h-1,362                                          0.01 	(obj:0)
h-1,366                                          0.01 	(obj:0)
h-1,376                                          0.01 	(obj:0)
h-1,377                             0.233529413342476 	(obj:0)
h-1,378                             0.919411768913269 	(obj:0)
h-1,379                             0.793921580314636 	(obj:0)
h-1,380                            0.0213725508749485 	(obj:0)
h-1,381                                          0.01 	(obj:0)
h-1,382                                          0.01 	(obj:0)
h-1,385                                          0.01 	(obj:0)
h-1,389                                          0.01 	(obj:0)
h-1,390                                          0.01 	(obj:0)
h-1,391                                          0.01 	(obj:0)
h-1,392                                          0.01 	(obj:0)
h-1,402                                          0.01 	(obj:0)
h-1,403                                          0.01 	(obj:0)
h-1,404                                          0.01 	(obj:0)
h-1,405                             0.476274510622025 	(obj:0)
h-1,406                                          0.99 	(obj:0)
h-1,407                             0.637058844566345 	(obj:0)
h-1,409                                          0.01 	(obj:0)
h-1,410                                          0.01 	(obj:0)
h-1,411                                          0.01 	(obj:0)
h-1,412                                          0.01 	(obj:0)
h-1,413                                          0.01 	(obj:0)
h-1,417                                          0.01 	(obj:0)
h-1,418                                          0.01 	(obj:0)
h-1,419                                          0.01 	(obj:0)
h-1,420                                          0.01 	(obj:0)
h-1,423                                          0.01 	(obj:0)
h-1,427                                          0.01 	(obj:0)
h-1,428                                          0.01 	(obj:0)
h-1,430                                          0.01 	(obj:0)
h-1,431                                          0.01 	(obj:0)
h-1,432                                          0.01 	(obj:0)
h-1,433                             0.680588254928589 	(obj:0)
h-1,434                             0.986078431606293 	(obj:0)
h-1,435                             0.307647069692612 	(obj:0)
h-1,436                                          0.01 	(obj:0)
h-1,437                                          0.01 	(obj:0)
h-1,438                                          0.01 	(obj:0)
h-1,439                                          0.01 	(obj:0)
h-1,445                                          0.01 	(obj:0)
h-1,446                                          0.01 	(obj:0)
h-1,451                                          0.01 	(obj:0)
h-1,452                                          0.01 	(obj:0)
h-1,453                                          0.01 	(obj:0)
h-1,454                                          0.01 	(obj:0)
h-1,455                                          0.01 	(obj:0)
h-1,456                                          0.01 	(obj:0)
h-1,457                                          0.01 	(obj:0)
h-1,458                                          0.01 	(obj:0)
h-1,459                                          0.01 	(obj:0)
h-1,460                             0.104117648899555 	(obj:0)
h-1,461                             0.919803926944733 	(obj:0)
h-1,462                             0.853137264251709 	(obj:0)
h-1,464                                          0.01 	(obj:0)
h-1,465                                          0.01 	(obj:0)
h-1,466                                          0.01 	(obj:0)
h-1,467                                          0.01 	(obj:0)
h-1,473                                          0.01 	(obj:0)
h-1,474                                          0.01 	(obj:0)
h-1,476                                          0.01 	(obj:0)
h-1,479                                          0.01 	(obj:0)
h-1,480                                          0.01 	(obj:0)
h-1,481                                          0.01 	(obj:0)
h-1,482                                          0.01 	(obj:0)
h-1,483                                          0.01 	(obj:0)
h-1,486                                          0.01 	(obj:0)
h-1,488                             0.480588237047195 	(obj:0)
h-1,489                                             1 	(obj:0)
h-1,490                             0.633529434204102 	(obj:0)
h-1,491                                          0.01 	(obj:0)
h-1,492                                          0.01 	(obj:0)
h-1,493                                          0.01 	(obj:0)
h-1,497                                          0.01 	(obj:0)
h-1,501                                          0.01 	(obj:0)
h-1,502                                          0.01 	(obj:0)
h-1,503                                          0.01 	(obj:0)
h-1,506                                          0.01 	(obj:0)
h-1,507                                          0.01 	(obj:0)
h-1,508                                          0.01 	(obj:0)
h-1,509                                          0.01 	(obj:0)
h-1,510                                          0.01 	(obj:0)
h-1,511                                          0.01 	(obj:0)
h-1,513                                          0.01 	(obj:0)
h-1,516                             0.602156887054443 	(obj:0)
h-1,517                                             1 	(obj:0)
h-1,518                             0.566862771511078 	(obj:0)
h-1,519                                          0.01 	(obj:0)
h-1,520                                          0.01 	(obj:0)
h-1,521                                          0.01 	(obj:0)
h-1,524                                          0.01 	(obj:0)
h-1,525                                          0.01 	(obj:0)
h-1,529                                          0.01 	(obj:0)
h-1,530                                          0.01 	(obj:0)
h-1,531                                          0.01 	(obj:0)
h-1,532                                          0.01 	(obj:0)
h-1,534                                          0.01 	(obj:0)
h-1,535                                          0.01 	(obj:0)
h-1,536                                          0.01 	(obj:0)
h-1,537                                          0.01 	(obj:0)
h-1,538                                          0.01 	(obj:0)
h-1,539                                          0.01 	(obj:0)
h-1,541                                          0.01 	(obj:0)
h-1,542                                          0.01 	(obj:0)
h-1,543                                          0.01 	(obj:0)
h-1,544                             0.904117653369904 	(obj:0)
h-1,545                                             1 	(obj:0)
h-1,546                             0.268823543787003 	(obj:0)
h-1,547                                          0.01 	(obj:0)
h-1,548                                          0.01 	(obj:0)
h-1,549                                          0.01 	(obj:0)
h-1,550                                          0.01 	(obj:0)
h-1,551                                          0.01 	(obj:0)
h-1,552                                          0.01 	(obj:0)
h-1,553                                          0.01 	(obj:0)
h-1,556                                          0.01 	(obj:0)
h-1,557                                          0.01 	(obj:0)
h-1,558                                          0.01 	(obj:0)
h-1,559                                          0.01 	(obj:0)
h-1,560                                          0.01 	(obj:0)
h-1,561                                          0.01 	(obj:0)
h-1,562                                          0.01 	(obj:0)
h-1,563                                          0.01 	(obj:0)
h-1,564                                          0.01 	(obj:0)
h-1,565                                          0.01 	(obj:0)
h-1,566                                          0.01 	(obj:0)
h-1,567                                          0.01 	(obj:0)
h-1,569                                          0.01 	(obj:0)
h-1,570                                          0.01 	(obj:0)
h-1,571                             0.229215686917305 	(obj:0)
h-1,572                             0.994313726425171 	(obj:0)
h-1,573                                             1 	(obj:0)
h-1,574                             0.268823543787003 	(obj:0)
h-1,575                                          0.01 	(obj:0)
h-1,576                                          0.01 	(obj:0)
h-1,577                                          0.01 	(obj:0)
h-1,578                                          0.01 	(obj:0)
h-1,579                                          0.01 	(obj:0)
h-1,580                                          0.01 	(obj:0)
h-1,581                                          0.01 	(obj:0)
h-1,582                                          0.01 	(obj:0)
h-1,583                                          0.01 	(obj:0)
h-1,584                                          0.01 	(obj:0)
h-1,585                                          0.01 	(obj:0)
h-1,586                                          0.01 	(obj:0)
h-1,587                                          0.01 	(obj:0)
h-1,588                                          0.01 	(obj:0)
h-1,589                                          0.01 	(obj:0)
h-1,590                                          0.01 	(obj:0)
h-1,591                                          0.01 	(obj:0)
h-1,592                                          0.01 	(obj:0)
h-1,593                                          0.01 	(obj:0)
h-1,594                                          0.01 	(obj:0)
h-1,595                                          0.01 	(obj:0)
h-1,596                                          0.01 	(obj:0)
h-1,599                             0.542941203117371 	(obj:0)
h-1,600                                             1 	(obj:0)
h-1,601                             0.813921580314636 	(obj:0)
h-1,602                            0.0217647061124444 	(obj:0)
h-1,603                                          0.01 	(obj:0)
h-1,604                                          0.01 	(obj:0)
h-1,605                                          0.01 	(obj:0)
h-1,606                                          0.01 	(obj:0)
h-1,607                                          0.01 	(obj:0)
h-1,608                                          0.01 	(obj:0)
h-1,609                                          0.01 	(obj:0)
h-1,610                                          0.01 	(obj:0)
h-1,611                                          0.01 	(obj:0)
h-1,612                                          0.01 	(obj:0)
h-1,613                                          0.01 	(obj:0)
h-1,614                                          0.01 	(obj:0)
h-1,615                                          0.01 	(obj:0)
h-1,616                                          0.01 	(obj:0)
h-1,617                                          0.01 	(obj:0)
h-1,618                                          0.01 	(obj:0)
h-1,619                                          0.01 	(obj:0)
h-1,620                                          0.01 	(obj:0)
h-1,621                           0.00347106800421872 	(obj:0)
h-1,623                                          0.01 	(obj:0)
h-1,624                                          0.01 	(obj:0)
h-1,625                                          0.01 	(obj:0)
h-1,626                            0.0292156876623631 	(obj:0)
h-1,627                             0.833137264251709 	(obj:0)
h-1,628                             0.986078431606293 	(obj:0)
h-1,629                             0.464509805440903 	(obj:0)
h-1,630                                          0.01 	(obj:0)
h-1,633                                          0.01 	(obj:0)
h-1,634                                          0.01 	(obj:0)
h-1,635                                          0.01 	(obj:0)
h-1,636                                          0.01 	(obj:0)
h-1,637                                          0.01 	(obj:0)
h-1,638                                          0.01 	(obj:0)
h-1,639                                          0.01 	(obj:0)
h-1,640                                          0.01 	(obj:0)
h-1,641                                          0.01 	(obj:0)
h-1,642                                          0.01 	(obj:0)
h-1,643                                          0.01 	(obj:0)
h-1,645                                          0.01 	(obj:0)
h-1,646                                          0.01 	(obj:0)
h-1,647                                          0.01 	(obj:0)
h-1,651                                          0.01 	(obj:0)
h-1,652                                          0.01 	(obj:0)
h-1,653                                          0.01 	(obj:0)
h-1,654                            0.0296078438311815 	(obj:0)
h-1,655                             0.766470601558685 	(obj:0)
h-1,656                             0.680196096897125 	(obj:0)
h-1,657                            0.0292156876623631 	(obj:0)
h-1,662                                          0.01 	(obj:0)
h-1,663                                          0.01 	(obj:0)
h-1,664                                          0.01 	(obj:0)
h-1,665                                          0.01 	(obj:0)
h-1,666                                          0.01 	(obj:0)
h-1,668                                          0.01 	(obj:0)
h-1,669                                          0.01 	(obj:0)
h-1,670                                          0.01 	(obj:0)
h-1,672                                          0.01 	(obj:0)
h-1,673                                          0.01 	(obj:0)
h-1,674                                          0.01 	(obj:0)
h-1,680                                          0.01 	(obj:0)
h-1,681                                          0.01 	(obj:0)
h-1,682                                          0.01 	(obj:0)
h-1,683                                          0.01 	(obj:0)
h-1,684                                          0.01 	(obj:0)
h-1,696                                          0.01 	(obj:0)
h-1,697                                          0.01 	(obj:0)
h-1,701                                          0.01 	(obj:0)
h-1,702                                          0.01 	(obj:0)
h-1,703                                          0.01 	(obj:0)
h-1,706                                          0.01 	(obj:0)
h-1,708                                          0.01 	(obj:0)
h-1,711                                          0.01 	(obj:0)
h-1,712                                          0.01 	(obj:0)
h-1,731                                          0.01 	(obj:0)
h-1,754                                          0.01 	(obj:0)
h-1,755                                          0.01 	(obj:0)
h-1,756                                          0.01 	(obj:0)
h-1,758                                          0.01 	(obj:0)
h-1,759                                          0.01 	(obj:0)
h-1,760                                          0.01 	(obj:0)
h-1,766                                          0.01 	(obj:0)
h-1,782                                          0.01 	(obj:0)
z0,0                                 18.4441057354355 	(obj:0)
a0,0                                 1.00000000098109 	(obj:0)
z0,1                                -4.23547299382447 	(obj:0)
a0,1                               0.0142665118329842 	(obj:0)
z0,2                                 27.6176806491433 	(obj:0)
a0,2                                 1.00000000099999 	(obj:0)
z0,3                                 26.7792320951097 	(obj:0)
a0,3                                 1.00000000099999 	(obj:0)
z0,4                                -12.0453470959537 	(obj:0)
a0,4                             1.54020106504033e-09 	(obj:0)
z0,5                                 19.1132445328387 	(obj:0)
a0,5                                0.999997523897369 	(obj:0)
z0,6                                 -8.9834529622923 	(obj:0)
a0,6                             0.000135095501918395 	(obj:0)
z0,7                                 28.6356795950764 	(obj:0)
a0,7                                0.999999999832219 	(obj:0)
z0,8                                 20.7610303293458 	(obj:0)
a0,8                                0.999999618413682 	(obj:0)
z0,9                                 21.6881644643609 	(obj:0)
a0,9                                 1.00000000099982 	(obj:0)
z1,0                                -7.46906934230998 	(obj:0)
a1,0                             0.000571971768204505 	(obj:0)
z1,1                                 1.03119640743795 	(obj:0)
a1,1                                0.737155051758202 	(obj:0)
z1,2                                -10.6767497731936 	(obj:0)
a1,2                             2.30618627045098e-05 	(obj:0)
z1,3                                -6.09132244595663 	(obj:0)
a1,3                              0.00225743202509692 	(obj:0)
z1,4                                 -6.2919567261342 	(obj:0)
a1,4                              0.00184537225502842 	(obj:0)
z1,5                                -7.83851898728081 	(obj:0)
a1,5                              0.00040341062253663 	(obj:0)
z1,6                                -5.50052777742739 	(obj:0)
a1,6                              0.00406680079513819 	(obj:0)
z1,7                                -3.43111701654911 	(obj:0)
a1,7                               0.0313367999356297 	(obj:0)
z1,8                                -7.49998661715587 	(obj:0)
a1,8                             0.000552498481909519 	(obj:0)
z1,9                                 3.60928358098272 	(obj:0)
a1,9                                0.973641231431368 	(obj:0)
z2,0                                 3.46320464137143 	(obj:0)
a2,0                                0.969619689001281 	(obj:0)
z2,1                                 3.76801455509039 	(obj:0)
a2,1                                 0.97743083399804 	(obj:0)
z2,2                                 2.47093996568988 	(obj:0)
a2,2                                0.922069542191806 	(obj:0)
z2,3                               -0.344415988400851 	(obj:0)
a2,3                                0.414738596060994 	(obj:0)
z2,4                                -4.27253548683506 	(obj:0)
a2,4                               0.0137580923081524 	(obj:0)
z2,5                               -0.800722177740241 	(obj:0)
a2,5                                0.309874346422837 	(obj:0)
z2,6                                  1.6649110304198 	(obj:0)
a2,6                                0.840893693613951 	(obj:0)
z2,7                                -5.60174610963151 	(obj:0)
a2,7                              0.00367893311166635 	(obj:0)
z2,8                                -2.13620491422365 	(obj:0)
a2,8                                0.105635104693225 	(obj:0)
z2,9                                -2.42090821069249 	(obj:0)
a2,9                               0.0815926258329551 	(obj:0)
z3,0                                -8.89376403275051 	(obj:0)
a3,0                             0.000131822932266716 	(obj:0)
z3,1                                 10.6790043982725 	(obj:0)
a3,1                                0.999975999132446 	(obj:-1)
z3,2                                -10.0847586071661 	(obj:0)
a3,2                             3.91440270076461e-05 	(obj:0)
z3,3                                -8.00895657407569 	(obj:0)
a3,3                             0.000324325122447258 	(obj:0)
z3,4                                -27.1569378036938 	(obj:0)
z3,5                                -19.8634524745651 	(obj:0)
a3,5                             1.88815877244387e-09 	(obj:0)
z3,6                                -19.1041204220828 	(obj:0)
a3,6                             4.84099305034494e-09 	(obj:0)
z3,7                                -8.35155144303876 	(obj:0)
a3,7                             0.000243765151593727 	(obj:1)
z3,8                                -5.69296532500786 	(obj:0)
a3,8                              0.00335554772498004 	(obj:0)
z3,9                                -12.0202633128292 	(obj:0)
a3,9                             4.41178688115329e-06 	(obj:0)
